NumGames = 10;
NumReferees = 30;
NumFields = 5;
game_start = [710, 790, 1160, 1230, 600, 1110, 840, 945, 780, 1140];
game_end = [830, 910, 1280, 1350, 720, 1230, 960, 1065, 900, 1260];
difficulty = [1, 1, 1, 1, 3, 3, 1, 1, 2, 1];
game_field = [1, 1, 1, 1, 2, 2, 3, 3, 4, 5];
main_exp = [128, 23, 24, 39, 45, 147, 105, 135, 36, 12, 9, 12, 57, 31, 4, 12, 0, 21, 0, 14, 2, 1, 0, 2, 0, 1, 7, 6, 5, 0];
assist_exp = [3, 62, 44, 0, 51, 99, 79, 101, 133, 46, 36, 61, 106, 43, 23, 97, 0, 3, 29, 66, 12, 12, 15, 24, 9, 42, 0, 24, 3, 0];
available_slots = array3d(1..NumReferees, 1..10, 1..2,[
  0,1440, 0,0, 0,0, 0,0, 0,0, 0,0, 0,0, 0,0, 0,0, 0,0,
  0,1440, 0,0, 0,0, 0,0, 0,0, 0,0, 0,0, 0,0, 0,0, 0,0,
  1080,1320, 0,0, 0,0, 0,0, 0,0, 0,0, 0,0, 0,0, 0,0, 0,0,
  1110,1230, 0,0, 0,0, 0,0, 0,0, 0,0, 0,0, 0,0, 0,0, 0,0,
  660,1110, 0,0, 0,0, 0,0, 0,0, 0,0, 0,0, 0,0, 0,0, 0,0,
  780,1094, 0,0, 0,0, 0,0, 0,0, 0,0, 0,0, 0,0, 0,0, 0,0,
  0,1080, 0,0, 0,0, 0,0, 0,0, 0,0, 0,0, 0,0, 0,0, 0,0,
  0,1440, 0,0, 0,0, 0,0, 0,0, 0,0, 0,0, 0,0, 0,0, 0,0,
  0,1440, 0,0, 0,0, 0,0, 0,0, 0,0, 0,0, 0,0, 0,0, 0,0,
  720,1410, 0,0, 0,0, 0,0, 0,0, 0,0, 0,0, 0,0, 0,0, 0,0,
  780,1080, 0,0, 0,0, 0,0, 0,0, 0,0, 0,0, 0,0, 0,0, 0,0,
  600,900, 0,0, 0,0, 0,0, 0,0, 0,0, 0,0, 0,0, 0,0, 0,0,
  600,840, 840,1230, 0,0, 0,0, 0,0, 0,0, 0,0, 0,0, 0,0, 0,0,
  600,1350, 0,0, 0,0, 0,0, 0,0, 0,0, 0,0, 0,0, 0,0, 0,0,
  840,960, 0,0, 0,0, 0,0, 0,0, 0,0, 0,0, 0,0, 0,0, 0,0,
  0,1080, 0,0, 0,0, 0,0, 0,0, 0,0, 0,0, 0,0, 0,0, 0,0,
  840,1020, 0,0, 0,0, 0,0, 0,0, 0,0, 0,0, 0,0, 0,0, 0,0,
  1080,1320, 0,0, 0,0, 0,0, 0,0, 0,0, 0,0, 0,0, 0,0, 0,0,
  0,1440, 0,0, 0,0, 0,0, 0,0, 0,0, 0,0, 0,0, 0,0, 0,0,
  600,720, 930,1080, 0,0, 0,0, 0,0, 0,0, 0,0, 0,0, 0,0, 0,0,
  1110,1230, 1230,1380, 0,0, 0,0, 0,0, 0,0, 0,0, 0,0, 0,0, 0,0,
  540,780, 0,0, 0,0, 0,0, 0,0, 0,0, 0,0, 0,0, 0,0, 0,0,
  0,1440, 0,0, 0,0, 0,0, 0,0, 0,0, 0,0, 0,0, 0,0, 0,0,
  0,1440, 0,0, 0,0, 0,0, 0,0, 0,0, 0,0, 0,0, 0,0, 0,0,
  750,930, 0,0, 0,0, 0,0, 0,0, 0,0, 0,0, 0,0, 0,0, 0,0,
  750,1080, 0,0, 0,0, 0,0, 0,0, 0,0, 0,0, 0,0, 0,0, 0,0,
  720,1410, 0,0, 0,0, 0,0, 0,0, 0,0, 0,0, 0,0, 0,0, 0,0,
  0,1440, 0,0, 0,0, 0,0, 0,0, 0,0, 0,0, 0,0, 0,0, 0,0,
  570,930, 1230,1350, 0,0, 0,0, 0,0, 0,0, 0,0, 0,0, 0,0, 0,0,
  0,1440, 720,2160, 0,0, 0,0, 0,0, 0,0, 0,0, 0,0, 0,0, 0,0,
]);